200
150
100
100
100
100
100
99
99
98
98
98
98
97
97
96
96
96
95
95
94
94
93
93
93
92
91
91
91
91
91
90
89
89
89
89
89
88
88
88
88
88
87
87
86
86
86
86
85
85
85
84
84
84
83
83
83
82
82
82
82
82
81
81
80
80
80
80
79
79
79
79
79
79
78
75
75
75
74
74
73
73
73
73
73
71
71
70
70
68
68
67
67
67
67
67
66
65
65
65
65
64
64
63
62
62
62
62
61
61
60
59
58
58
57
56
56
55
54
54
53
52
52
52
52
52
51
51
51
51
51
51
51
48
48
47
47
46
46
46
46
46
45
45
44
43
43
43
43
43
42
42
41
39
39
39
38
36
34
34
33
33
33
33
33
32
32
31
31
31
30
30
30
29
29
29
29
28
28
28
28
28
27
27
26
26
26
26
26
25
25
25
25
24
24
22
22
21
21
21
21
20
